72 66764
31 60 14 47 22 65 35 53 12 18 10 23 7 38 29 21 2 34 27 70 67 33 49 46 50 43 3 30 28 32 1 59 13 37 52 25 17 39 16 71 55 6 63 69 24 56 68 9 40 19 66 58 20 45 8 61 26 44 57 15 36 4 5 54 64 48 51 42 41 62 72 11 
